NAME : amz2686.126022_106522.tour
COMMENT : Cost = 126022_106522
COMMENT : Found by LKH-AMZ [Keld Helsgaun] Sun May 11 15:19:18 2025
COMMENT : TW viol.: 0 #: 0
TYPE : TOUR
DIMENSION : 154
TOUR_SECTION
111
45
153
1
144
105
50
122
149
25
152
100
148
141
110
42
57
3
27
114
41
125
59
101
127
63
49
75
154
40
66
143
106
35
19
13
67
116
70
98
77
32
43
4
146
142
31
71
68
56
62
11
52
39
134
91
7
129
72
65
80
123
136
145
20
6
46
96
36
2
30
78
140
90
74
132
115
28
94
58
69
44
84
26
108
21
93
92
102
113
126
99
29
97
88
38
147
121
87
119
83
24
76
89
135
12
64
85
109
34
95
73
55
9
139
130
112
16
33
150
17
14
107
82
131
137
15
54
22
79
86
47
23
61
51
103
128
10
53
104
48
5
118
81
120
8
37
133
117
151
60
124
18
138
-1
EOF
